N = 6;
H = 5;
T = 2;

avail = array3d(1..N, 1..H, 1..T, [9, 4, 8, 8, 5, 6, 6, 9, 7, 4, 9, 6, 6, 6, 2, 5, 3, 2, 6, 6, 2, 1, 7, 3, 0, 4, 6, 0, 6, 7, 7, 1, 10, 8, 6, 9, 7, 0, 7, 3, 8, 8, 5, 4, 9, 4, 1, 5, 3, 4, 5, 3, 4, 4, 9, 7, 6, 8, 3, 6]);

r = array2d(1..H, 1..T, [3, 0, 2, 0, 2, 2, 3, 1, 2, 0]);
